data/MCDM/NO_CORR/GEN_FROM_60/14_ITEMS_1000_GEN/K5014W08.KNP.mps
NAME          BLANK   
ROWS
 N  OBJROW
 L  R0000000
COLUMNS
    C0000000  OBJROW     -628.         R0000000  254.        
    C0000001  OBJROW     -679.         R0000000  762.        
    C0000002  OBJROW     -468.         R0000000  416.        
    C0000003  OBJROW     -432.         R0000000  519.        
    C0000004  OBJROW     -297.         R0000000  160.        
    C0000005  OBJROW     -26.          R0000000  96.         
    C0000006  OBJROW     -980.         R0000000  590.        
    C0000007  OBJROW     -52.          R0000000  646.        
    C0000008  OBJROW     -560.         R0000000  812.        
    C0000009  OBJROW     -494.         R0000000  675.        
    C0000010  OBJROW     -678.         R0000000  747.        
    C0000011  OBJROW     -769.         R0000000  593.        
    C0000012  OBJROW     -801.         R0000000  411.        
    C0000013  OBJROW     -602.         R0000000  584.        
RHS
    RHS       R0000000  15314.      
BOUNDS
 BV BOUND     C0000000  1.          
 BV BOUND     C0000001  1.          
 BV BOUND     C0000002  1.          
 BV BOUND     C0000003  1.          
 BV BOUND     C0000004  1.          
 BV BOUND     C0000005  1.          
 BV BOUND     C0000006  1.          
 BV BOUND     C0000007  1.          
 BV BOUND     C0000008  1.          
 BV BOUND     C0000009  1.          
 BV BOUND     C0000010  1.          
 BV BOUND     C0000011  1.          
 BV BOUND     C0000012  1.          
 BV BOUND     C0000013  1.          
ENDATA
