data/MCDM/NO_CORR/GEN_FROM_60/14_ITEMS_1000_GEN/K5014W08.KNP.txt
N 14
M 15
LC 14
LC 15
LC 16
LC 17
LC 18
LC 19
LC 20
LC 21
LC 22
LC 23
LC 24
LC 25
LC 26
LC 27
LR 1
LR 2
LR 3
LR 4
LR 5
LR 6
LR 7
LR 8
LR 9
LR 10
LR 11
LR 12
LR 13
LR 14
LR 15
LO -628
LO -679
LO -468
LO -432
LO -297
LO -26
LO -980
LO -52
LO -560
LO -494
LO -678
LO -769
LO -801
LO -602
OS 1
IC 522
IC 613
IC 646
IC 746
IC 248
IC 790
IC 598
IC 428
IC 101
IC 783
IC 785
IC 948
IC 426
IC 327
IB 3981
